NAME: cum10.tsp
TYPE: TSP
COMMENT: User-generated TSP file
DIMENSION: 10
EDGE_WEIGHT_TYPE: EUC_2D
NODE_COORD_SECTION
1 53.0 50.0
2 20.0 56.0
3 10.0 55.0
4 74.0 91.0
5 90.0 55.0
6 68.0 18.0
7 33.0 35.0
8 64.0 97.0
9 43.0 61.0
10 50.0 14.0
EOF

